14° run output:
{
    "Function": "kroB750.tsp",
    "Problem dimension": [
        194,
        487,
        418,
        393,
        637,
        521,
        156,
        130,
        293,
        692,
        603,
        311,
        644,
        201,
        709,
        249,
        732,
        203,
        18,
        227,
        421,
        41,
        565,
        687,
        469,
        574,
        90,
        389,
        673,
        479,
        84,
        541,
        239,
        161,
        142,
        214,
        559,
        163,
        65,
        557,
        466,
        516,
        85,
        159,
        736,
        285,
        40,
        151,
        432,
        463,
        455,
        373,
        172,
        470,
        167,
        740,
        496,
        566,
        206,
        683,
        20,
        453,
        71,
        135,
        33,
        405,
        310,
        462,
        164,
        612,
        333,
        48,
        334,
        635,
        89,
        449,
        244,
        132,
        301,
        506,
        125,
        646,
        78,
        482,
        46,
        737,
        478,
        129,
        356,
        343,
        617,
        486,
        144,
        707,
        634,
        277,
        647,
        467,
        176,
        136,
        579,
        347,
        268,
        738,
        442,
        632,
        670,
        523,
        694,
        261,
        150,
        403,
        240,
        211,
        658,
        508,
        338,
        652,
        725,
        628,
        242,
        691,
        379,
        131,
        148,
        75,
        387,
        314,
        171,
        182,
        359,
        260,
        272,
        581,
        547,
        276,
        400,
        608,
        287,
        570,
        440,
        409,
        585,
        518,
        100,
        739,
        577,
        174,
        664,
        372,
        34,
        309,
        238,
        615,
        529,
        38,
        728,
        734,
        477,
        727,
        452,
        116,
        459,
        10,
        29,
        342,
        127,
        680,
        248,
        23,
        232,
        576,
        119,
        661,
        668,
        273,
        663,
        538,
        431,
        631,
        417,
        296,
        698,
        186,
        57,
        228,
        331,
        679,
        243,
        493,
        52,
        451,
        118,
        385,
        332,
        369,
        551,
        94,
        275,
        745,
        112,
        241,
        175,
        423,
        251,
        183,
        298,
        711,
        282,
        157,
        497,
        484,
        504,
        124,
        425,
        160,
        648,
        360,
        295,
        335,
        689,
        434,
        623,
        643,
        458,
        376,
        426,
        730,
        102,
        743,
        693,
        271,
        123,
        626,
        481,
        107,
        64,
        328,
        51,
        43,
        188,
        620,
        54,
        216,
        505,
        7,
        594,
        429,
        402,
        45,
        552,
        223,
        498,
        642,
        247,
        420,
        553,
        187,
        13,
        346,
        589,
        364,
        50,
        30,
        265,
        264,
        5,
        662,
        622,
        461,
        563,
        684,
        168,
        522,
        649,
        25,
        290,
        233,
        675,
        237,
        103,
        190,
        597,
        17,
        586,
        229,
        319,
        627,
        659,
        105,
        419,
        408,
        60,
        533,
        101,
        607,
        537,
        468,
        327,
        720,
        476,
        197,
        474,
        651,
        53,
        641,
        705,
        284,
        465,
        370,
        681,
        235,
        575,
        746,
        674,
        716,
        312,
        97,
        104,
        199,
        591,
        145,
        196,
        37,
        562,
        494,
        181,
        500,
        193,
        96,
        27,
        68,
        169,
        39,
        690,
        638,
        666,
        1,
        213,
        200,
        704,
        297,
        564,
        532,
        155,
        444,
        185,
        73,
        262,
        139,
        682,
        16,
        55,
        114,
        158,
        406,
        475,
        530,
        391,
        259,
        106,
        374,
        686,
        611,
        4,
        209,
        19,
        735,
        122,
        724,
        31,
        357,
        299,
        344,
        502,
        427,
        365,
        304,
        396,
        450,
        583,
        300,
        253,
        519,
        12,
        291,
        108,
        741,
        208,
        590,
        363,
        362,
        358,
        47,
        326,
        95,
        520,
        26,
        723,
        624,
        6,
        113,
        355,
        121,
        191,
        202,
        138,
        266,
        215,
        348,
        443,
        289,
        36,
        397,
        437,
        524,
        721,
        413,
        81,
        600,
        195,
        582,
        384,
        56,
        173,
        411,
        72,
        303,
        9,
        445,
        719,
        614,
        539,
        748,
        703,
        154,
        166,
        74,
        337,
        325,
        137,
        571,
        501,
        388,
        701,
        629,
        527,
        278,
        669,
        245,
        179,
        544,
        80,
        509,
        141,
        606,
        93,
        697,
        480,
        263,
        210,
        560,
        177,
        63,
        439,
        99,
        747,
        98,
        28,
        218,
        671,
        352,
        598,
        58,
        283,
        491,
        383,
        436,
        222,
        371,
        184,
        32,
        672,
        256,
        178,
        320,
        483,
        353,
        146,
        543,
        134,
        22,
        254,
        234,
        258,
        336,
        636,
        699,
        3,
        226,
        456,
        653,
        515,
        350,
        305,
        561,
        665,
        192,
        678,
        87,
        526,
        660,
        578,
        685,
        601,
        286,
        366,
        507,
        59,
        162,
        621,
        473,
        422,
        11,
        86,
        377,
        35,
        599,
        619,
        24,
        446,
        609,
        246,
        454,
        448,
        556,
        340,
        91,
        147,
        217,
        677,
        292,
        288,
        394,
        742,
        399,
        525,
        654,
        42,
        416,
        414,
        133,
        257,
        592,
        381,
        329,
        696,
        550,
        580,
        616,
        438,
        503,
        460,
        534,
        398,
        430,
        117,
        79,
        447,
        221,
        713,
        650,
        224,
        378,
        126,
        140,
        457,
        323,
        14,
        252,
        153,
        572,
        330,
        316,
        593,
        722,
        88,
        307,
        308,
        657,
        180,
        706,
        321,
        219,
        605,
        567,
        731,
        204,
        604,
        433,
        345,
        395,
        198,
        386,
        645,
        279,
        695,
        517,
        317,
        315,
        717,
        165,
        189,
        220,
        375,
        729,
        490,
        595,
        77,
        404,
        380,
        313,
        318,
        542,
        514,
        8,
        511,
        368,
        667,
        708,
        656,
        488,
        128,
        512,
        588,
        294,
        549,
        610,
        67,
        536,
        231,
        618,
        424,
        535,
        281,
        69,
        62,
        212,
        76,
        639,
        412,
        109,
        718,
        441,
        630,
        322,
        267,
        149,
        44,
        170,
        152,
        702,
        236,
        324,
        66,
        688,
        120,
        510,
        367,
        207,
        250,
        269,
        110,
        407,
        280,
        225,
        302,
        749,
        274,
        83,
        205,
        471,
        230,
        341,
        21,
        464,
        676,
        401,
        435,
        472,
        492,
        485,
        596,
        255,
        546,
        545,
        712,
        744,
        111,
        602,
        415,
        61,
        92,
        354,
        143,
        633,
        548,
        555,
        15,
        531,
        306,
        489,
        640,
        714,
        540,
        710,
        554,
        0,
        70,
        613,
        558,
        587,
        392,
        410,
        499,
        390,
        726,
        2,
        382,
        115,
        625,
        428,
        339,
        573,
        361,
        655,
        349,
        700,
        584,
        528,
        513,
        715,
        49,
        568,
        270,
        495,
        82,
        351,
        569,
        733
    ],
    "Global Optimum": 0,
    "Algorithm": "Genetic algorithm",
    "Parameters": {
        "population": 30,
        "offspring": 30,
        "mutation probability": 0.0013333333333333333,
        "crossover probability": 0.9
    },
    "Fitness": 892972,
    "Solution": [
        194,
        487,
        418,
        393,
        637,
        521,
        156,
        130,
        293,
        692,
        603,
        311,
        644,
        201,
        709,
        249,
        732,
        203,
        18,
        227,
        421,
        41,
        565,
        687,
        469,
        574,
        90,
        389,
        673,
        479,
        84,
        541,
        239,
        161,
        142,
        214,
        559,
        163,
        65,
        557,
        466,
        516,
        85,
        159,
        736,
        285,
        40,
        151,
        432,
        463,
        455,
        373,
        172,
        470,
        167,
        740,
        496,
        566,
        206,
        683,
        20,
        453,
        71,
        135,
        33,
        405,
        310,
        462,
        164,
        612,
        333,
        48,
        334,
        635,
        89,
        449,
        244,
        132,
        301,
        506,
        125,
        646,
        78,
        482,
        46,
        737,
        478,
        129,
        356,
        343,
        617,
        486,
        144,
        707,
        634,
        277,
        647,
        467,
        176,
        136,
        579,
        347,
        268,
        738,
        442,
        632,
        670,
        523,
        694,
        261,
        150,
        403,
        240,
        211,
        658,
        508,
        338,
        652,
        725,
        628,
        242,
        691,
        379,
        131,
        148,
        75,
        387,
        314,
        171,
        182,
        359,
        260,
        272,
        581,
        547,
        276,
        400,
        608,
        287,
        570,
        440,
        409,
        585,
        518,
        100,
        739,
        577,
        174,
        664,
        372,
        34,
        309,
        238,
        615,
        529,
        38,
        728,
        734,
        477,
        727,
        452,
        116,
        459,
        10,
        29,
        342,
        127,
        680,
        248,
        23,
        232,
        576,
        119,
        661,
        668,
        273,
        663,
        538,
        431,
        631,
        417,
        296,
        698,
        186,
        57,
        228,
        331,
        679,
        243,
        493,
        52,
        451,
        118,
        385,
        332,
        369,
        551,
        94,
        275,
        745,
        112,
        241,
        175,
        423,
        251,
        183,
        298,
        711,
        282,
        157,
        497,
        484,
        504,
        124,
        425,
        160,
        648,
        360,
        295,
        335,
        689,
        434,
        623,
        643,
        458,
        376,
        426,
        730,
        102,
        743,
        693,
        271,
        123,
        626,
        481,
        107,
        64,
        328,
        51,
        43,
        188,
        620,
        54,
        216,
        505,
        7,
        594,
        429,
        402,
        45,
        552,
        223,
        498,
        642,
        247,
        420,
        553,
        187,
        13,
        346,
        589,
        364,
        50,
        30,
        265,
        264,
        5,
        662,
        622,
        461,
        563,
        684,
        168,
        522,
        649,
        25,
        290,
        233,
        675,
        237,
        103,
        190,
        597,
        17,
        586,
        229,
        319,
        627,
        659,
        105,
        419,
        408,
        60,
        533,
        101,
        607,
        537,
        468,
        327,
        720,
        476,
        197,
        474,
        651,
        53,
        641,
        705,
        284,
        465,
        370,
        681,
        235,
        575,
        746,
        674,
        716,
        312,
        97,
        104,
        199,
        591,
        145,
        196,
        37,
        562,
        494,
        181,
        500,
        193,
        96,
        27,
        68,
        169,
        39,
        690,
        638,
        666,
        1,
        213,
        200,
        704,
        297,
        564,
        532,
        155,
        444,
        185,
        73,
        262,
        139,
        682,
        16,
        55,
        114,
        158,
        406,
        475,
        530,
        391,
        259,
        106,
        374,
        686,
        611,
        4,
        209,
        19,
        735,
        122,
        724,
        31,
        357,
        299,
        344,
        502,
        427,
        365,
        304,
        396,
        450,
        583,
        300,
        253,
        519,
        12,
        291,
        108,
        741,
        208,
        590,
        363,
        362,
        358,
        47,
        326,
        95,
        520,
        26,
        723,
        624,
        6,
        113,
        355,
        121,
        191,
        202,
        138,
        266,
        215,
        348,
        443,
        289,
        36,
        397,
        437,
        524,
        721,
        413,
        81,
        600,
        195,
        582,
        384,
        56,
        173,
        411,
        72,
        303,
        9,
        445,
        719,
        614,
        539,
        748,
        703,
        154,
        166,
        74,
        337,
        325,
        137,
        571,
        501,
        388,
        701,
        629,
        527,
        278,
        669,
        245,
        179,
        544,
        80,
        509,
        141,
        606,
        93,
        697,
        480,
        263,
        210,
        560,
        177,
        63,
        439,
        99,
        747,
        98,
        28,
        218,
        671,
        352,
        598,
        58,
        283,
        491,
        383,
        436,
        222,
        371,
        184,
        32,
        672,
        256,
        178,
        320,
        483,
        353,
        146,
        543,
        134,
        22,
        254,
        234,
        258,
        336,
        636,
        699,
        3,
        226,
        456,
        653,
        515,
        350,
        305,
        561,
        665,
        192,
        678,
        87,
        526,
        660,
        578,
        685,
        601,
        286,
        366,
        507,
        59,
        162,
        621,
        473,
        422,
        11,
        86,
        377,
        35,
        599,
        619,
        24,
        446,
        609,
        246,
        454,
        448,
        556,
        340,
        91,
        147,
        217,
        677,
        292,
        288,
        394,
        742,
        399,
        525,
        654,
        42,
        416,
        414,
        133,
        257,
        592,
        381,
        329,
        696,
        550,
        580,
        616,
        438,
        503,
        460,
        534,
        398,
        430,
        117,
        79,
        447,
        221,
        713,
        650,
        224,
        378,
        126,
        140,
        457,
        323,
        14,
        252,
        153,
        572,
        330,
        316,
        593,
        722,
        88,
        307,
        308,
        657,
        180,
        706,
        321,
        219,
        605,
        567,
        731,
        204,
        604,
        433,
        345,
        395,
        198,
        386,
        645,
        279,
        695,
        517,
        317,
        315,
        717,
        165,
        189,
        220,
        375,
        729,
        490,
        595,
        77,
        404,
        380,
        313,
        318,
        542,
        514,
        8,
        511,
        368,
        667,
        708,
        656,
        488,
        128,
        512,
        588,
        294,
        549,
        610,
        67,
        536,
        231,
        618,
        424,
        535,
        281,
        69,
        62,
        212,
        76,
        639,
        412,
        109,
        718,
        441,
        630,
        322,
        267,
        149,
        44,
        170,
        152,
        702,
        236,
        324,
        66,
        688,
        120,
        510,
        367,
        207,
        250,
        269,
        110,
        407,
        280,
        225,
        302,
        749,
        274,
        83,
        205,
        471,
        230,
        341,
        21,
        464,
        676,
        401,
        435,
        472,
        492,
        485,
        596,
        255,
        546,
        545,
        712,
        744,
        111,
        602,
        415,
        61,
        92,
        354,
        143,
        633,
        548,
        555,
        15,
        531,
        306,
        489,
        640,
        714,
        540,
        710,
        554,
        0,
        70,
        613,
        558,
        587,
        392,
        410,
        499,
        390,
        726,
        2,
        382,
        115,
        625,
        428,
        339,
        573,
        361,
        655,
        349,
        700,
        584,
        528,
        513,
        715,
        49,
        568,
        270,
        495,
        82,
        351,
        569,
        733
    ],
    "Nb of functions evaluations": 200010,
    "Computational time in seconds": 1661.4050812721252,
    "Stopping criterion in evaluations": 200000
}